SCIP version 5.0.0 [precision: 8 byte] [memory: block] [mode: optimized] [LP solver: NONE] [GitHash: 3bbd232]
Copyright (C) 2002-2017 Konrad-Zuse-Zentrum fuer Informationstechnik Berlin (ZIB)

External codes: 
  Readline EditLine w  GNU library for command line editing (gnu.org/s/readline)
  CppAD 20160000.1     Algorithmic Differentiation of C++ algorithms developed by B. Bell (www.coin-or.org/CppAD)
  ZLIB 1.2.5           General purpose compression library by J. Gailly and M. Adler (zlib.net)
  GMP 6.1.2            GNU Multiple Precision Arithmetic Library developed by T. Granlund (gmplib.org)

user parameter file <scip.set> not found - using default parameters

read problem <../../Split_data/output/spectf/6/3_sample_spectf.logreg>
============

File name	:	../../Split_data/output/spectf/6/3_sample_spectf.logreg
Problem name 	:	3_sample_spectf
Number of data	:	214
Number of var	:	44
The given data has linear independence

[dim=1] time: 0.007967
[dim=2] time: 0.016209
[dim=3] time: 0.024406
[dim=4] time: 0.031318
[dim=5] time: 0.03881
[dim=6] time: 0.045499
[dim=7] time: 0.052293
[dim=8] time: 0.058427
[dim=9] time: 0.064152
[dim=10] time: 0.07006
[dim=11] time: 0.075858
[dim=12] Time of forward = 0.081424sec.
AIC: 125.481
k: 11

[dim=44] time: 0.029395
[dim=43] time: 0.047438
[dim=42] time: 0.065552
[dim=41] time: 0.077899
[dim=40] time: 0.093635
[dim=39] time: 0.104344
[dim=38] time: 0.116298
[dim=37] time: 0.141629
[dim=36] time: 0.154531
[dim=35] time: 0.175503
[dim=34] time: 0.185878
[dim=33] time: 0.199369
[dim=32] time: 0.208959
[dim=31] time: 0.219665
[dim=30] time: 0.231048
[dim=29] time: 0.240061
[dim=28] time: 0.249525
[dim=27] time: 0.259864
[dim=26] time: 0.269635
[dim=25] time: 0.276322
[dim=24] time: 0.284363
[dim=23] time: 0.292486
[dim=22] time: 0.299255
[dim=21] time: 0.305501
[dim=20] time: 0.310615
[dim=19] time: 0.316408
[dim=18] time: 0.322544
[dim=17] time: 0.326761
[dim=16] time: 0.331824
[dim=15] Time of backward = 0.335264sec.
AIC: 127.459
k: 16
